# 54948
param n := 30;
param s := 1;
set E :=  (0,2) (0,10) (0,27) (1,15) (1,23) (1,24) (3,15) (3,26) (4,13) (4,24) (5,7) (6,19) (6,23) (7,27) (8,19) (9,13) (11,19) (12,22) (12,24) (13,14) (14,22) (16,21) (16,23) (17,27) (18,28) (19,23) (20,28) (21,27) (23,29) (25,29) (28,29);
